branch-and-cut/resultados/I080/i080-114.sol
1895
11
58 5
11 35
11 80
7 35
3 80
6 58
1 58
58 35
2 11
11 4
8 11
